
Gurobi 9.5.2 (win64) logging started Tue Mar 28 02:08:15 2023

Set parameter LogFile to value "2023-03-27_20hr-25min-09sec/Nodes40_Arcs65_LocNodes30/Formulation-1Instance-4.log"
Set parameter TimeLimit to value 600
Set parameter IntFeasTol to value 1e-09
Set parameter DualReductions to value 0
Set parameter NonConvex to value 2
Gurobi Optimizer version 9.5.2 build v9.5.2rc0 (win64)
Thread count: 4 physical cores, 8 logical processors, using up to 8 threads
Optimize a model with 176 rows, 310 columns and 670 nonzeros
Model fingerprint: 0x79b60340
Model has 30 quadratic objective terms
Model has 105 SOS constraints
Variable types: 280 continuous, 30 integer (30 binary)
Coefficient statistics:
  Matrix range     [1e-02, 2e+02]
  Objective range  [3e+00, 2e+02]
  QObjective range [2e+00, 2e+00]
  Bounds range     [1e+00, 1e+00]
  RHS range        [3e-02, 3e+03]
Presolve removed 9 rows and 13 columns
Presolve time: 0.00s
Presolved: 226 rows, 328 columns, 787 nonzeros
Presolved model has 97 SOS constraint(s)
Presolved model has 29 bilinear constraint(s)
Variable types: 298 continuous, 30 integer (30 binary)

Root relaxation: unbounded, 130 iterations, 0.00 seconds (0.00 work units)

    Nodes    |    Current Node    |     Objective Bounds      |     Work
 Expl Unexpl |  Obj  Depth IntInf | Incumbent    BestBd   Gap | It/Node Time

     0     0  postponed    0               -          -      -     -    0s
     0     0  postponed    0               -          -      -     -    0s
Exploring 100 nodes in MinRel heuristic
No solution found by MinRel heuristic
     0     2  postponed    0               -          -      -     -    0s
Exploring 10000 nodes in MinRel heuristic
H 3407   857                    -15708.21163          -      -  30.5    3s
Feasible solution found by MinRel heuristic at node 5083
  8066  1274 infeasible   71      -15708.212          -      -  23.9    5s
 20433  2490 infeasible   62      -15708.212          -      -  16.1   10s
 33538  3205  postponed   58      -15708.212          -      -  14.2   15s
 46117  3721 infeasible   62      -15708.212          -      -  12.8   20s
 60761  4160  postponed   58      -15708.212          -      -  11.1   25s
 76393  4367 infeasible   61      -15708.212          -      -  10.2   30s
 93541  4511  postponed   52      -15708.212          -      -   9.4   35s
 109235  4554 infeasible   60      -15708.212          -      -   8.8   40s
 125603  4651  postponed   59      -15708.212          -      -   8.3   45s
 142783  4492 infeasible   61      -15708.212          -      -   7.9   50s
 159747  4375 infeasible   62      -15708.212          -      -   7.7   55s
 176646  4287 infeasible   62      -15708.212          -      -   7.5   60s
 192921  4334  postponed   59      -15708.212          -      -   7.2   65s
 213682  4259 infeasible   60      -15708.212          -      -   6.9   70s
 231146  4214  postponed   59      -15708.212          -      -   6.9   75s
 245890  4213  postponed   57      -15708.212          -      -   6.8   80s
 259321  4158 infeasible   60      -15708.212          -      -   6.8   85s
 274317  4354  postponed   59      -15708.212          -      -   6.9   90s
 288773  4510 infeasible   60      -15708.212          -      -   6.8   95s
 303208  4594 infeasible   60      -15708.212          -      -   6.8  100s
 318247  4654 infeasible   61      -15708.212          -      -   6.8  105s
 333923  4687 infeasible   62      -15708.212          -      -   6.7  110s
 349342  4578 infeasible   60      -15708.212          -      -   6.7  115s
 364284  4471  postponed   59      -15708.212          -      -   6.7  120s
 378745  4455 infeasible   60      -15708.212          -      -   6.7  125s
 394651  4410  postponed   51      -15708.212          -      -   6.7  130s
 408967  4436 infeasible   60      -15708.212          -      -   6.6  135s
 423086  4336 infeasible   60      -15708.212          -      -   6.7  140s
 435932  4321 infeasible   61      -15708.212          -      -   6.7  145s
 450461  4216 infeasible   60      -15708.212          -      -   6.7  150s
 466251  4231 infeasible   61      -15708.212          -      -   6.7  155s
 483118  4195 infeasible   60      -15708.212          -      -   6.7  160s
 499030  4108  postponed   58      -15708.212          -      -   6.7  165s
 518814  4277 infeasible   61      -15708.212          -      -   6.7  170s
 534676  4385 infeasible   61      -15708.212          -      -   6.7  175s
 549506  4449  postponed   60      -15708.212          -      -   6.6  180s
 566395  4561 infeasible   62      -15708.212          -      -   6.6  185s
 582493  4493 infeasible   60      -15708.212          -      -   6.6  190s
 598433  4437 infeasible   60      -15708.212          -      -   6.6  195s
 614184  4294 infeasible   60      -15708.212          -      -   6.6  200s
 628563  4224 infeasible   60      -15708.212          -      -   6.6  205s
 644288  4066 infeasible   62      -15708.212          -      -   6.6  210s
 663186  4260  postponed   59      -15708.212          -      -   6.5  215s
 681898  4352 infeasible   60      -15708.212          -      -   6.5  220s
 699085  4254  postponed   58      -15708.212          -      -   6.4  225s
 716405  4282 infeasible   61      -15708.212          -      -   6.4  230s
 734323  4115 infeasible   60      -15708.212          -      -   6.3  235s
 756278  4181  postponed   59      -15708.212          -      -   6.3  240s
 771811  4175  postponed   61      -15708.212          -      -   6.3  245s
 788957  4117 infeasible   62      -15708.212          -      -   6.2  250s
 805871  4033  postponed   61      -15708.212          -      -   6.2  255s
 821221  3998  postponed   61      -15708.212          -      -   6.2  260s
 837302  3941  postponed   58      -15708.212          -      -   6.2  265s
 854026  3977  postponed   56      -15708.212          -      -   6.2  270s
 870293  3946  postponed   57      -15708.212          -      -   6.2  275s
 885796  3908 infeasible   65      -15708.212          -      -   6.2  280s
 901016  3907 infeasible   61      -15708.212          -      -   6.2  285s
 917523  3827 infeasible   59      -15708.212          -      -   6.2  290s
 933211  3844  postponed   62      -15708.212          -      -   6.2  295s
 948773  3828  postponed   61      -15708.212          -      -   6.2  300s
 964743  3944  postponed   57      -15708.212          -      -   6.2  305s
 980743  3972 infeasible   61      -15708.212          -      -   6.2  310s
 1000185  4050 infeasible   62      -15708.212          -      -   6.2  315s
 1015778  4106 infeasible   62      -15708.212          -      -   6.2  320s
 1030440  4031 infeasible   60      -15708.212          -      -   6.2  325s
 1047384  4020 infeasible   61      -15708.212          -      -   6.2  330s
 1063396  3876 infeasible   62      -15708.212          -      -   6.2  335s
 1078906  3813  postponed   57      -15708.212          -      -   6.2  340s
 1093915  4084 infeasible   62      -15708.212          -      -   6.2  345s
 1112558  4176  postponed   56      -15708.212          -      -   6.3  350s
 1126495  4267  postponed   59      -15708.212          -      -   6.3  355s
 1141137  4332 infeasible   50      -15708.212          -      -   6.3  360s
 1156944  4430  postponed   59      -15708.212          -      -   6.3  365s
 1171354  4467 infeasible   60      -15708.212          -      -   6.3  370s
 1187448  4277  postponed   59      -15708.212          -      -   6.3  375s
 1201242  4224  postponed   59      -15708.212          -      -   6.3  380s
 1215479  4198 infeasible   62      -15708.212          -      -   6.4  385s
 1230392  4215  postponed   54      -15708.212          -      -   6.4  390s
 1246525  4190 infeasible   60      -15708.212          -      -   6.4  395s
 1262286  4121  postponed   58      -15708.212          -      -   6.4  400s
 1278230  4258  postponed   57      -15708.212          -      -   6.4  405s
 1294544  4203 infeasible   61      -15708.212          -      -   6.3  410s
 1311590  4107  postponed   59      -15708.212          -      -   6.3  415s
 1327842  4054  postponed   59      -15708.212          -      -   6.3  420s
 1343895  4021 infeasible   65      -15708.212          -      -   6.3  425s
 1359267  4058 infeasible   60      -15708.212          -      -   6.3  430s
 1376022  3984  postponed   58      -15708.212          -      -   6.3  435s
 1391590  3997 infeasible   61      -15708.212          -      -   6.3  440s
 1406828  4182 infeasible   62      -15708.212          -      -   6.3  445s
 1422605  4321  postponed   59      -15708.212          -      -   6.3  450s
 1439392  4358  postponed   58      -15708.212          -      -   6.3  455s
 1455155  4435  postponed   59      -15708.212          -      -   6.3  460s
 1475407  4420 infeasible   62      -15708.212          -      -   6.3  465s
 1491370  4297  postponed   58      -15708.212          -      -   6.3  470s
 1507636  4227  postponed   61      -15708.212          -      -   6.3  475s
 1524610  4146 infeasible   61      -15708.212          -      -   6.2  480s
 1540308  4118 infeasible   61      -15708.212          -      -   6.2  485s
 1556743  4104 infeasible   62      -15708.212          -      -   6.2  490s
 1572544  4024  postponed   59      -15708.212          -      -   6.2  495s
 1586829  4047 infeasible   58      -15708.212          -      -   6.2  500s
 1600344  4098 infeasible   60      -15708.212          -      -   6.2  505s
 1615549  4033  postponed   61      -15708.212          -      -   6.3  510s
 1630381  3899 infeasible   62      -15708.212          -      -   6.3  515s
 1645483  3740  postponed   57      -15708.212          -      -   6.3  520s
 1665251  3998  postponed   62      -15708.212          -      -   6.3  525s
 1681524  4269  postponed   59      -15708.212          -      -   6.3  530s
 1697277  4270 infeasible   61      -15708.212          -      -   6.3  535s
 1712659  4199  postponed   59      -15708.212          -      -   6.3  540s
 1728742  4143 infeasible   56      -15708.212          -      -   6.3  545s
 1744825  4068 infeasible   62      -15708.212          -      -   6.3  550s
 1759163  4053 infeasible   62      -15708.212          -      -   6.3  555s
 1772935  3962 infeasible   60      -15708.212          -      -   6.3  560s
 1787761  3907  postponed   61      -15708.212          -      -   6.2  565s
 1803043  3863  postponed   59      -15708.212          -      -   6.2  570s
 1817426  3724 infeasible   65      -15708.212          -      -   6.2  575s
 1832164  3781 infeasible   62      -15708.212          -      -   6.2  580s
 1846862  3823 infeasible   60      -15708.212          -      -   6.2  585s
 1864561  4014  postponed   60      -15708.212          -      -   6.2  590s
 1881952  4032 infeasible   60      -15708.212          -      -   6.2  595s
 1898751  3885 infeasible   62      -15708.212          -      -   6.2  600s

Explored 1899907 nodes (11752465 simplex iterations) in 600.03 seconds (106.28 work units)
Thread count was 8 (of 8 available processors)

Solution count 1: -15708.2 

Time limit reached
Best objective 7.011455918491e+05, best bound -, gap -

User-callback calls 3803558, time in user-callback 37.51 sec
